31 31 11 30 10 46 45 12 11 32 22 17 32 23 38 17 10 33 14 45 11 39 22 11 7 46 18 29 8 23 19 12 17 45 9 25 20 11 46 7 22 39 14 9 40 31 35 36 17 39 37 24 15 19 46 8 37 15 11 44 14 9 46 23 24 40 24 18 35 19 21 36 24 40 16 20 31 15 21 13